NAME : XML100_3156_04
DIMENSION : 101
NB_CLUSTERS : 7
CLUSTERING_ALG : KMedoids
CLUSTERING_PARAMS : k(6)
CLUSTERS
1 0
2 2 4 6 9 10 11 12 16 20 24 25 27 30 31 33 37 45 53 66 67 75 76 80 88 92 93
3 15 23 26 29 34 43 44 46 54 58 71 72 73 77 81 83 85 87 97 98
4 7 32 42 47 59 62 64 69 70 90 99
5 1 38 40 41 50 51 52 55 60 63 79 100
6 5 8 17 18 19 21 22 39 49 56 74 82 84 86 89 91 95 96
7 3 13 14 28 35 36 48 57 61 65 68 78 94
EOF